s td 13 38 50
b 1 1 2 4 6 8 9 10 11 12 13 15 16 17 18 19 20 21 22 23 25 26 28 29 30 32 33 34 35 36 37 39 41 44 45 46 47 48 49
b 2 1 4 6 8 9 10 11 12 13 14 15 16 17 18 19 20 21 22 23 25 26 28 29 30 32 33 34 35 36 37 39 41 44 45 46 47 48 49
b 3 1 4 5 6 8 9 10 11 12 13 14 15 16 17 18 19 20 21 22 23 25 26 28 29 32 33 34 35 36 37 39 41 44 45 47 48 49
b 4 1 4 5 6 9 10 11 12 13 14 15 16 17 18 19 20 21 22 23 25 26 27 28 29 32 33 34 35 36 37 41 44 45 47 48
b 5 1 3 4 5 6 9 10 11 12 13 14 16 17 18 19 20 21 22 23 25 26 27 28 32 33 34 36 37 41 44 45 47 48
b 6 3 4 5 6 9 10 11 12 13 14 16 17 18 19 20 21 22 23 24 25 26 28 32 33 34 36 41 44 45 47 48
b 7 4 9 10 11 12 13 16 17 19 20 24 26 28 32 33 34 41 43 47 48
b 8 4 5 7 8 11 14 15 20 23 29 33 36 37 39 45 47 48 49
b 9 1 4 6 8 10 11 12 13 14 15 17 19 20 21 26 28 30 32 33 34 36 38 39 41 44 45 47
b 10 1 2 6 8 9 10 11 12 13 15 16 17 18 19 20 21 22 23 25 26 28 30 31 32 33 34 35 36 37 39 41 44 45 46 47 48 49
b 11 1 6 8 9 10 11 12 13 16 17 18 19 21 22 23 26 28 30 31 32 33 34 35 36 37 39 40 41 45 46 47 48 49
b 12 1 6 8 9 10 11 12 13 16 17 18 19 21 23 26 28 30 31 32 33 34 35 36 37 40 41 42 45 46 48 49
b 13 6 8 9 10 16 17 18 19 21 23 26 28 30 31 32 33 34 35 36 37 41 42 45 48 49 50
1 2
1 10
2 3
2 9
3 4
3 8
4 5
5 6
6 7
10 11
11 12
12 13
